g9 1 1 0 19 20190616 0 4 0 244	# problem tp124
 12 19 1 0 2	# vars, constraints, objectives, ranges, eqns
 7 1	# nonlinear constraints, objectives
 0 0	# network constraints: nonlinear, linear
 12 6 6	# nonlinear vars in constraints, objectives, both
 0 0 0 1	# linear network variables; functions; arith, flags
 0 0 0 0 0	# discrete variables: binary, integer, nonlinear (b,c,o)
 63 6	# nonzeros in Jacobian, gradients
 0 0	# max name lengths: constraints, variables
 3 0 0 12 2	# common exprs: b,c,o,c1,o1
b
3
3
3
3
3
3
3
3
3
3
3
3
x12
0 0.007366545300436547
1 0.007366545300436547
2 0.007366545300436547
3 0.1
4 0.1
5 0.1
6 -0.05
7 0.05
8 -0.05
9 -0.05
10 -0.0007366545300436547
11 0.05
r
4 -0.05
2 0
2 0
2 0
2 0
2 0
2 0
4 0
2 0
2 0
2 0
2 0
2 0
2 0
2 0
2 0
2 0
2 0
2 0
V12 0 0
o2
n11309.733552923255
o5
v0
n3
V13 0 0
o2
n80843.65095237734
o5
v1
n3
V14 0 0
o2
n32923.89100962103
o5
v2
n3
C0
o16
o54
3
v14
v13
v12
V15 0 2
o54
3
o5
v6
n2
o5
v9
n2
o5
v3
n2
V16 0 2
o0
o2
n-135.7488428043386
v15
o2
n135.7488428043386
o5
v0
n2
C1
v16
V17 0 3
o54
3
o5
v7
n2
o5
v10
n2
o5
v4
n2
V18 0 3
o0
o2
n-135.7488428043386
v17
o2
n135.7488428043386
o5
v1
n2
C2
v18
V19 0 4
o54
3
o5
v8
n2
o5
v11
n2
o5
v5
n2
V20 0 4
o0
o2
n-135.7488428043386
v19
o2
n135.7488428043386
o5
v2
n2
C3
v20
V21 0 5
o39
o54
3
o5
o1
v6
v7
n2
o5
o1
v9
v10
n2
o5
o1
v3
v4
n2
V22 0 5
v21
C4
v22
V23 0 6
o39
o54
3
o5
o1
v7
v8
n2
o5
o1
v10
v11
n2
o5
o1
v4
v5
n2
V24 0 6
v23
C5
v24
V25 0 7
o39
o54
3
o5
o1
v8
v6
n2
o5
o1
v11
v9
n2
o5
o1
v5
v3
n2
V26 0 7
v25
C6
v26
C7
n0
C8
n0
C9
n0
C10
n0
C11
n0
C12
n0
C13
n0
C14
n0
C15
n0
C16
n0
C17
n0
C18
n0
V27 0 20
o54
3
o2
n9.80665
o2
v12
v3
o2
n9.80665
o2
v13
v4
o2
n9.80665
o2
v14
v5
V28 0 20
v27
O0 0
v28
k11
10
20
30
33
36
39
43
47
51
55
59
J0 3
0 0
1 0
2 0
J1 4
0 -2714.9768560867724
3 2714.9768560867724
6 0
9 0
J2 4
1 -2714.9768560867724
4 2714.9768560867724
7 0
10 0
J3 4
2 -2714.9768560867724
5 2714.9768560867724
8 0
11 0
J4 8
0 -1
1 -1
3 0
4 0
6 0
7 0
9 0
10 0
J5 8
1 -1
2 -1
4 0
5 0
7 0
8 0
10 0
11 0
J6 8
0 -1
2 -1
3 0
5 0
6 0
8 0
9 0
11 0
J7 2
1 -0.1
10 -1
J8 2
0 -0.1
6 -1
J9 2
1 -0.1
7 1
J10 2
2 -0.1
8 -1
J11 2
0 -0.1
9 -1
J12 2
2 -0.1
11 1
J13 2
0 1
1 -0.5
J14 2
0 1
2 -0.5
J15 2
0 -0.5
1 1
J16 2
1 1
2 -0.5
J17 2
0 -0.5
2 1
J18 2
1 -0.5
2 1
G0 6
0 0
1 0
2 0
3 0
4 0
5 0
